c User generated cnf file
p cnf 6 27
2 -3 5 0 
2 -2 2 0 
4 5 -2 0 
5 -3 6 0 
6 -2 5 0 
1 6 -6 0 
2 -6 1 0 
4 -1 3 0 
1 -5 5 0 
4 -1 5 0 
5 3 -3 0 
1 -5 6 0 
1 1 -3 0 
5 -5 1 0 
2 2 -3 0 
5 -3 6 0 
6 5 -4 0 
6 5 -5 0 
4 -3 4 0 
6 -1 5 0 
6 -2 3 0 
6 -2 2 0 
2 -3 2 0 
3 4 -4 0 
3 4 -1 0 
6 -6 2 0 
1 2 -1 0 
